; benchmark generated from python API
(set-info :status unknown)
(declare-fun cell_1_2 () Int)
(declare-fun cell_1_6 () Int)
(declare-fun cell_2_1 () Int)
(declare-fun cell_2_7 () Int)
(declare-fun cell_3_5 () Int)
(declare-fun cell_3_8 () Int)
(declare-fun cell_4_8 () Int)
(declare-fun cell_4_9 () Int)
(declare-fun cell_5_5 () Int)
(declare-fun cell_6_3 () Int)
(declare-fun cell_7_7 () Int)
(declare-fun cell_8_2 () Int)
(declare-fun cell_9_4 () Int)
(declare-fun cell_1_1 () Int)
(declare-fun cell_3_1 () Int)
(declare-fun cell_4_1 () Int)
(declare-fun cell_5_1 () Int)
(declare-fun cell_6_1 () Int)
(declare-fun cell_7_1 () Int)
(declare-fun cell_8_1 () Int)
(declare-fun cell_9_1 () Int)
(declare-fun cell_2_2 () Int)
(declare-fun cell_3_2 () Int)
(declare-fun cell_4_2 () Int)
(declare-fun cell_5_2 () Int)
(declare-fun cell_6_2 () Int)
(declare-fun cell_7_2 () Int)
(declare-fun cell_9_2 () Int)
(declare-fun cell_1_3 () Int)
(declare-fun cell_2_3 () Int)
(declare-fun cell_3_3 () Int)
(declare-fun cell_4_3 () Int)
(declare-fun cell_5_3 () Int)
(declare-fun cell_7_3 () Int)
(declare-fun cell_8_3 () Int)
(declare-fun cell_9_3 () Int)
(declare-fun cell_1_4 () Int)
(declare-fun cell_2_4 () Int)
(declare-fun cell_3_4 () Int)
(declare-fun cell_4_4 () Int)
(declare-fun cell_5_4 () Int)
(declare-fun cell_6_4 () Int)
(declare-fun cell_7_4 () Int)
(declare-fun cell_8_4 () Int)
(declare-fun cell_1_5 () Int)
(declare-fun cell_2_5 () Int)
(declare-fun cell_4_5 () Int)
(declare-fun cell_6_5 () Int)
(declare-fun cell_7_5 () Int)
(declare-fun cell_8_5 () Int)
(declare-fun cell_9_5 () Int)
(declare-fun cell_2_6 () Int)
(declare-fun cell_3_6 () Int)
(declare-fun cell_4_6 () Int)
(declare-fun cell_5_6 () Int)
(declare-fun cell_6_6 () Int)
(declare-fun cell_7_6 () Int)
(declare-fun cell_8_6 () Int)
(declare-fun cell_9_6 () Int)
(declare-fun cell_1_7 () Int)
(declare-fun cell_3_7 () Int)
(declare-fun cell_4_7 () Int)
(declare-fun cell_5_7 () Int)
(declare-fun cell_6_7 () Int)
(declare-fun cell_8_7 () Int)
(declare-fun cell_9_7 () Int)
(declare-fun cell_1_8 () Int)
(declare-fun cell_2_8 () Int)
(declare-fun cell_5_8 () Int)
(declare-fun cell_6_8 () Int)
(declare-fun cell_7_8 () Int)
(declare-fun cell_8_8 () Int)
(declare-fun cell_9_8 () Int)
(declare-fun cell_1_9 () Int)
(declare-fun cell_2_9 () Int)
(declare-fun cell_3_9 () Int)
(declare-fun cell_5_9 () Int)
(declare-fun cell_6_9 () Int)
(declare-fun cell_7_9 () Int)
(declare-fun cell_8_9 () Int)
(declare-fun cell_9_9 () Int)
(assert
 (= cell_1_2 2))
(assert
 (= cell_1_6 1))
(assert
 (= cell_2_1 1))
(assert
 (= cell_2_7 2))
(assert
 (= cell_3_5 2))
(assert
 (= cell_3_8 1))
(assert
 (= cell_4_8 2))
(assert
 (= cell_4_9 1))
(assert
 (= cell_5_5 1))
(assert
 (= cell_6_3 1))
(assert
 (= cell_7_7 1))
(assert
 (= cell_8_2 1))
(assert
 (= cell_9_4 1))
(assert
 (let (($x143 (= cell_1_1 9)))
 (let (($x141 (= cell_1_1 8)))
 (let (($x139 (= cell_1_1 7)))
 (let (($x137 (= cell_1_1 6)))
 (let (($x135 (= cell_1_1 5)))
 (let (($x133 (= cell_1_1 4)))
 (let (($x131 (= cell_1_1 3)))
 (let (($x130 (= cell_1_1 2)))
 (let (($x129 (= cell_1_1 1)))
 (or $x129 $x130 $x131 $x133 $x135 $x137 $x139 $x141 $x143)))))))))))
(assert
 (let (($x152 (= cell_2_1 9)))
 (let (($x151 (= cell_2_1 8)))
 (let (($x150 (= cell_2_1 7)))
 (let (($x149 (= cell_2_1 6)))
 (let (($x148 (= cell_2_1 5)))
 (let (($x147 (= cell_2_1 4)))
 (let (($x146 (= cell_2_1 3)))
 (let (($x145 (= cell_2_1 2)))
 (let (($x113 (= cell_2_1 1)))
 (or $x113 $x145 $x146 $x147 $x148 $x149 $x150 $x151 $x152)))))))))))
(assert
 (let (($x162 (= cell_3_1 9)))
 (let (($x161 (= cell_3_1 8)))
 (let (($x160 (= cell_3_1 7)))
 (let (($x159 (= cell_3_1 6)))
 (let (($x158 (= cell_3_1 5)))
 (let (($x157 (= cell_3_1 4)))
 (let (($x156 (= cell_3_1 3)))
 (let (($x155 (= cell_3_1 2)))
 (let (($x154 (= cell_3_1 1)))
 (or $x154 $x155 $x156 $x157 $x158 $x159 $x160 $x161 $x162)))))))))))
(assert
 (let (($x172 (= cell_4_1 9)))
 (let (($x171 (= cell_4_1 8)))
 (let (($x170 (= cell_4_1 7)))
 (let (($x169 (= cell_4_1 6)))
 (let (($x168 (= cell_4_1 5)))
 (let (($x167 (= cell_4_1 4)))
 (let (($x166 (= cell_4_1 3)))
 (let (($x165 (= cell_4_1 2)))
 (let (($x164 (= cell_4_1 1)))
 (or $x164 $x165 $x166 $x167 $x168 $x169 $x170 $x171 $x172)))))))))))
(assert
 (let (($x181 (= cell_5_1 9)))
 (let (($x180 (= cell_5_1 8)))
 (let (($x179 (= cell_5_1 7)))
 (let (($x178 (= cell_5_1 6)))
 (let (($x177 (= cell_5_1 5)))
 (let (($x176 (= cell_5_1 4)))
 (let (($x175 (= cell_5_1 3)))
 (let (($x119 (= cell_5_1 2)))
 (let (($x174 (= cell_5_1 1)))
 (or $x174 $x119 $x175 $x176 $x177 $x178 $x179 $x180 $x181)))))))))))
(assert
 (let (($x191 (= cell_6_1 9)))
 (let (($x190 (= cell_6_1 8)))
 (let (($x189 (= cell_6_1 7)))
 (let (($x188 (= cell_6_1 6)))
 (let (($x187 (= cell_6_1 5)))
 (let (($x186 (= cell_6_1 4)))
 (let (($x185 (= cell_6_1 3)))
 (let (($x184 (= cell_6_1 2)))
 (let (($x183 (= cell_6_1 1)))
 (or $x183 $x184 $x185 $x186 $x187 $x188 $x189 $x190 $x191)))))))))))
(assert
 (let (($x201 (= cell_7_1 9)))
 (let (($x200 (= cell_7_1 8)))
 (let (($x199 (= cell_7_1 7)))
 (let (($x198 (= cell_7_1 6)))
 (let (($x197 (= cell_7_1 5)))
 (let (($x196 (= cell_7_1 4)))
 (let (($x195 (= cell_7_1 3)))
 (let (($x194 (= cell_7_1 2)))
 (let (($x193 (= cell_7_1 1)))
 (or $x193 $x194 $x195 $x196 $x197 $x198 $x199 $x200 $x201)))))))))))
(assert
 (let (($x211 (= cell_8_1 9)))
 (let (($x210 (= cell_8_1 8)))
 (let (($x209 (= cell_8_1 7)))
 (let (($x208 (= cell_8_1 6)))
 (let (($x207 (= cell_8_1 5)))
 (let (($x206 (= cell_8_1 4)))
 (let (($x205 (= cell_8_1 3)))
 (let (($x204 (= cell_8_1 2)))
 (let (($x203 (= cell_8_1 1)))
 (or $x203 $x204 $x205 $x206 $x207 $x208 $x209 $x210 $x211)))))))))))
(assert
 (let (($x221 (= cell_9_1 9)))
 (let (($x220 (= cell_9_1 8)))
 (let (($x219 (= cell_9_1 7)))
 (let (($x218 (= cell_9_1 6)))
 (let (($x217 (= cell_9_1 5)))
 (let (($x216 (= cell_9_1 4)))
 (let (($x215 (= cell_9_1 3)))
 (let (($x214 (= cell_9_1 2)))
 (let (($x213 (= cell_9_1 1)))
 (or $x213 $x214 $x215 $x216 $x217 $x218 $x219 $x220 $x221)))))))))))
(assert
 (let (($x230 (= cell_1_2 9)))
 (let (($x229 (= cell_1_2 8)))
 (let (($x228 (= cell_1_2 7)))
 (let (($x227 (= cell_1_2 6)))
 (let (($x226 (= cell_1_2 5)))
 (let (($x225 (= cell_1_2 4)))
 (let (($x224 (= cell_1_2 3)))
 (let (($x91 (= cell_1_2 2)))
 (let (($x223 (= cell_1_2 1)))
 (or $x223 $x91 $x224 $x225 $x226 $x227 $x228 $x229 $x230)))))))))))
(assert
 (let (($x240 (= cell_2_2 9)))
 (let (($x239 (= cell_2_2 8)))
 (let (($x238 (= cell_2_2 7)))
 (let (($x237 (= cell_2_2 6)))
 (let (($x236 (= cell_2_2 5)))
 (let (($x235 (= cell_2_2 4)))
 (let (($x234 (= cell_2_2 3)))
 (let (($x233 (= cell_2_2 2)))
 (let (($x232 (= cell_2_2 1)))
 (or $x232 $x233 $x234 $x235 $x236 $x237 $x238 $x239 $x240)))))))))))
(assert
 (let (($x250 (= cell_3_2 9)))
 (let (($x249 (= cell_3_2 8)))
 (let (($x248 (= cell_3_2 7)))
 (let (($x247 (= cell_3_2 6)))
 (let (($x246 (= cell_3_2 5)))
 (let (($x245 (= cell_3_2 4)))
 (let (($x244 (= cell_3_2 3)))
 (let (($x243 (= cell_3_2 2)))
 (let (($x242 (= cell_3_2 1)))
 (or $x242 $x243 $x244 $x245 $x246 $x247 $x248 $x249 $x250)))))))))))
(assert
 (let (($x260 (= cell_4_2 9)))
 (let (($x259 (= cell_4_2 8)))
 (let (($x258 (= cell_4_2 7)))
 (let (($x257 (= cell_4_2 6)))
 (let (($x256 (= cell_4_2 5)))
 (let (($x255 (= cell_4_2 4)))
 (let (($x254 (= cell_4_2 3)))
 (let (($x253 (= cell_4_2 2)))
 (let (($x252 (= cell_4_2 1)))
 (or $x252 $x253 $x254 $x255 $x256 $x257 $x258 $x259 $x260)))))))))))
(assert
 (let (($x270 (= cell_5_2 9)))
 (let (($x269 (= cell_5_2 8)))
 (let (($x268 (= cell_5_2 7)))
 (let (($x267 (= cell_5_2 6)))
 (let (($x266 (= cell_5_2 5)))
 (let (($x265 (= cell_5_2 4)))
 (let (($x264 (= cell_5_2 3)))
 (let (($x263 (= cell_5_2 2)))
 (let (($x262 (= cell_5_2 1)))
 (or $x262 $x263 $x264 $x265 $x266 $x267 $x268 $x269 $x270)))))))))))
(assert
 (let (($x280 (= cell_6_2 9)))
 (let (($x279 (= cell_6_2 8)))
 (let (($x278 (= cell_6_2 7)))
 (let (($x277 (= cell_6_2 6)))
 (let (($x276 (= cell_6_2 5)))
 (let (($x275 (= cell_6_2 4)))
 (let (($x274 (= cell_6_2 3)))
 (let (($x273 (= cell_6_2 2)))
 (let (($x272 (= cell_6_2 1)))
 (or $x272 $x273 $x274 $x275 $x276 $x277 $x278 $x279 $x280)))))))))))
(assert
 (let (($x290 (= cell_7_2 9)))
 (let (($x289 (= cell_7_2 8)))
 (let (($x288 (= cell_7_2 7)))
 (let (($x287 (= cell_7_2 6)))
 (let (($x286 (= cell_7_2 5)))
 (let (($x285 (= cell_7_2 4)))
 (let (($x284 (= cell_7_2 3)))
 (let (($x283 (= cell_7_2 2)))
 (let (($x282 (= cell_7_2 1)))
 (or $x282 $x283 $x284 $x285 $x286 $x287 $x288 $x289 $x290)))))))))))
(assert
 (let (($x299 (= cell_8_2 9)))
 (let (($x298 (= cell_8_2 8)))
 (let (($x297 (= cell_8_2 7)))
 (let (($x296 (= cell_8_2 6)))
 (let (($x295 (= cell_8_2 5)))
 (let (($x294 (= cell_8_2 4)))
 (let (($x293 (= cell_8_2 3)))
 (let (($x292 (= cell_8_2 2)))
 (let (($x125 (= cell_8_2 1)))
 (or $x125 $x292 $x293 $x294 $x295 $x296 $x297 $x298 $x299)))))))))))
(assert
 (let (($x309 (= cell_9_2 9)))
 (let (($x308 (= cell_9_2 8)))
 (let (($x307 (= cell_9_2 7)))
 (let (($x306 (= cell_9_2 6)))
 (let (($x305 (= cell_9_2 5)))
 (let (($x304 (= cell_9_2 4)))
 (let (($x303 (= cell_9_2 3)))
 (let (($x302 (= cell_9_2 2)))
 (let (($x301 (= cell_9_2 1)))
 (or $x301 $x302 $x303 $x304 $x305 $x306 $x307 $x308 $x309)))))))))))
(assert
 (let (($x319 (= cell_1_3 9)))
 (let (($x318 (= cell_1_3 8)))
 (let (($x317 (= cell_1_3 7)))
 (let (($x316 (= cell_1_3 6)))
 (let (($x315 (= cell_1_3 5)))
 (let (($x314 (= cell_1_3 4)))
 (let (($x313 (= cell_1_3 3)))
 (let (($x312 (= cell_1_3 2)))
 (let (($x311 (= cell_1_3 1)))
 (or $x311 $x312 $x313 $x314 $x315 $x316 $x317 $x318 $x319)))))))))))
(assert
 (let (($x329 (= cell_2_3 9)))
 (let (($x328 (= cell_2_3 8)))
 (let (($x327 (= cell_2_3 7)))
 (let (($x326 (= cell_2_3 6)))
 (let (($x325 (= cell_2_3 5)))
 (let (($x324 (= cell_2_3 4)))
 (let (($x323 (= cell_2_3 3)))
 (let (($x322 (= cell_2_3 2)))
 (let (($x321 (= cell_2_3 1)))
 (or $x321 $x322 $x323 $x324 $x325 $x326 $x327 $x328 $x329)))))))))))
(assert
 (let (($x339 (= cell_3_3 9)))
 (let (($x338 (= cell_3_3 8)))
 (let (($x337 (= cell_3_3 7)))
 (let (($x336 (= cell_3_3 6)))
 (let (($x335 (= cell_3_3 5)))
 (let (($x334 (= cell_3_3 4)))
 (let (($x333 (= cell_3_3 3)))
 (let (($x332 (= cell_3_3 2)))
 (let (($x331 (= cell_3_3 1)))
 (or $x331 $x332 $x333 $x334 $x335 $x336 $x337 $x338 $x339)))))))))))
(assert
 (let (($x349 (= cell_4_3 9)))
 (let (($x348 (= cell_4_3 8)))
 (let (($x347 (= cell_4_3 7)))
 (let (($x346 (= cell_4_3 6)))
 (let (($x345 (= cell_4_3 5)))
 (let (($x344 (= cell_4_3 4)))
 (let (($x343 (= cell_4_3 3)))
 (let (($x342 (= cell_4_3 2)))
 (let (($x341 (= cell_4_3 1)))
 (or $x341 $x342 $x343 $x344 $x345 $x346 $x347 $x348 $x349)))))))))))
(assert
 (let (($x359 (= cell_5_3 9)))
 (let (($x358 (= cell_5_3 8)))
 (let (($x357 (= cell_5_3 7)))
 (let (($x356 (= cell_5_3 6)))
 (let (($x355 (= cell_5_3 5)))
 (let (($x354 (= cell_5_3 4)))
 (let (($x353 (= cell_5_3 3)))
 (let (($x352 (= cell_5_3 2)))
 (let (($x351 (= cell_5_3 1)))
 (or $x351 $x352 $x353 $x354 $x355 $x356 $x357 $x358 $x359)))))))))))
(assert
 (let (($x368 (= cell_6_3 9)))
 (let (($x367 (= cell_6_3 8)))
 (let (($x366 (= cell_6_3 7)))
 (let (($x365 (= cell_6_3 6)))
 (let (($x364 (= cell_6_3 5)))
 (let (($x363 (= cell_6_3 4)))
 (let (($x362 (= cell_6_3 3)))
 (let (($x361 (= cell_6_3 2)))
 (let (($x121 (= cell_6_3 1)))
 (or $x121 $x361 $x362 $x363 $x364 $x365 $x366 $x367 $x368)))))))))))
(assert
 (let (($x378 (= cell_7_3 9)))
 (let (($x377 (= cell_7_3 8)))
 (let (($x376 (= cell_7_3 7)))
 (let (($x375 (= cell_7_3 6)))
 (let (($x374 (= cell_7_3 5)))
 (let (($x373 (= cell_7_3 4)))
 (let (($x372 (= cell_7_3 3)))
 (let (($x371 (= cell_7_3 2)))
 (let (($x370 (= cell_7_3 1)))
 (or $x370 $x371 $x372 $x373 $x374 $x375 $x376 $x377 $x378)))))))))))
(assert
 (let (($x387 (= cell_8_3 9)))
 (let (($x386 (= cell_8_3 8)))
 (let (($x385 (= cell_8_3 7)))
 (let (($x384 (= cell_8_3 6)))
 (let (($x383 (= cell_8_3 5)))
 (let (($x382 (= cell_8_3 4)))
 (let (($x381 (= cell_8_3 3)))
 (let (($x126 (= cell_8_3 2)))
 (let (($x380 (= cell_8_3 1)))
 (or $x380 $x126 $x381 $x382 $x383 $x384 $x385 $x386 $x387)))))))))))
(assert
 (let (($x397 (= cell_9_3 9)))
 (let (($x396 (= cell_9_3 8)))
 (let (($x395 (= cell_9_3 7)))
 (let (($x394 (= cell_9_3 6)))
 (let (($x393 (= cell_9_3 5)))
 (let (($x392 (= cell_9_3 4)))
 (let (($x391 (= cell_9_3 3)))
 (let (($x390 (= cell_9_3 2)))
 (let (($x389 (= cell_9_3 1)))
 (or $x389 $x390 $x391 $x392 $x393 $x394 $x395 $x396 $x397)))))))))))
(assert
 (let (($x406 (= cell_1_4 9)))
 (let (($x405 (= cell_1_4 8)))
 (let (($x404 (= cell_1_4 7)))
 (let (($x403 (= cell_1_4 6)))
 (let (($x402 (= cell_1_4 5)))
 (let (($x401 (= cell_1_4 4)))
 (let (($x110 (= cell_1_4 3)))
 (let (($x400 (= cell_1_4 2)))
 (let (($x399 (= cell_1_4 1)))
 (or $x399 $x400 $x110 $x401 $x402 $x403 $x404 $x405 $x406)))))))))))
(assert
 (let (($x416 (= cell_2_4 9)))
 (let (($x415 (= cell_2_4 8)))
 (let (($x414 (= cell_2_4 7)))
 (let (($x413 (= cell_2_4 6)))
 (let (($x412 (= cell_2_4 5)))
 (let (($x411 (= cell_2_4 4)))
 (let (($x410 (= cell_2_4 3)))
 (let (($x409 (= cell_2_4 2)))
 (let (($x408 (= cell_2_4 1)))
 (or $x408 $x409 $x410 $x411 $x412 $x413 $x414 $x415 $x416)))))))))))
(assert
 (let (($x426 (= cell_3_4 9)))
 (let (($x425 (= cell_3_4 8)))
 (let (($x424 (= cell_3_4 7)))
 (let (($x423 (= cell_3_4 6)))
 (let (($x422 (= cell_3_4 5)))
 (let (($x421 (= cell_3_4 4)))
 (let (($x420 (= cell_3_4 3)))
 (let (($x419 (= cell_3_4 2)))
 (let (($x418 (= cell_3_4 1)))
 (or $x418 $x419 $x420 $x421 $x422 $x423 $x424 $x425 $x426)))))))))))
(assert
 (let (($x436 (= cell_4_4 9)))
 (let (($x435 (= cell_4_4 8)))
 (let (($x434 (= cell_4_4 7)))
 (let (($x433 (= cell_4_4 6)))
 (let (($x432 (= cell_4_4 5)))
 (let (($x431 (= cell_4_4 4)))
 (let (($x430 (= cell_4_4 3)))
 (let (($x429 (= cell_4_4 2)))
 (let (($x428 (= cell_4_4 1)))
 (or $x428 $x429 $x430 $x431 $x432 $x433 $x434 $x435 $x436)))))))))))
(assert
 (let (($x446 (= cell_5_4 9)))
 (let (($x445 (= cell_5_4 8)))
 (let (($x444 (= cell_5_4 7)))
 (let (($x443 (= cell_5_4 6)))
 (let (($x442 (= cell_5_4 5)))
 (let (($x441 (= cell_5_4 4)))
 (let (($x440 (= cell_5_4 3)))
 (let (($x439 (= cell_5_4 2)))
 (let (($x438 (= cell_5_4 1)))
 (or $x438 $x439 $x440 $x441 $x442 $x443 $x444 $x445 $x446)))))))))))
(assert
 (let (($x455 (= cell_6_4 9)))
 (let (($x454 (= cell_6_4 8)))
 (let (($x453 (= cell_6_4 7)))
 (let (($x452 (= cell_6_4 6)))
 (let (($x451 (= cell_6_4 5)))
 (let (($x450 (= cell_6_4 4)))
 (let (($x449 (= cell_6_4 3)))
 (let (($x122 (= cell_6_4 2)))
 (let (($x448 (= cell_6_4 1)))
 (or $x448 $x122 $x449 $x450 $x451 $x452 $x453 $x454 $x455)))))))))))
(assert
 (let (($x465 (= cell_7_4 9)))
 (let (($x464 (= cell_7_4 8)))
 (let (($x463 (= cell_7_4 7)))
 (let (($x462 (= cell_7_4 6)))
 (let (($x461 (= cell_7_4 5)))
 (let (($x460 (= cell_7_4 4)))
 (let (($x459 (= cell_7_4 3)))
 (let (($x458 (= cell_7_4 2)))
 (let (($x457 (= cell_7_4 1)))
 (or $x457 $x458 $x459 $x460 $x461 $x462 $x463 $x464 $x465)))))))))))
(assert
 (let (($x475 (= cell_8_4 9)))
 (let (($x474 (= cell_8_4 8)))
 (let (($x473 (= cell_8_4 7)))
 (let (($x472 (= cell_8_4 6)))
 (let (($x471 (= cell_8_4 5)))
 (let (($x470 (= cell_8_4 4)))
 (let (($x469 (= cell_8_4 3)))
 (let (($x468 (= cell_8_4 2)))
 (let (($x467 (= cell_8_4 1)))
 (or $x467 $x468 $x469 $x470 $x471 $x472 $x473 $x474 $x475)))))))))))
(assert
 (let (($x484 (= cell_9_4 9)))
 (let (($x483 (= cell_9_4 8)))
 (let (($x482 (= cell_9_4 7)))
 (let (($x481 (= cell_9_4 6)))
 (let (($x480 (= cell_9_4 5)))
 (let (($x479 (= cell_9_4 4)))
 (let (($x478 (= cell_9_4 3)))
 (let (($x477 (= cell_9_4 2)))
 (let (($x127 (= cell_9_4 1)))
 (or $x127 $x477 $x478 $x479 $x480 $x481 $x482 $x483 $x484)))))))))))
(assert
 (let (($x494 (= cell_1_5 9)))
 (let (($x493 (= cell_1_5 8)))
 (let (($x492 (= cell_1_5 7)))
 (let (($x491 (= cell_1_5 6)))
 (let (($x490 (= cell_1_5 5)))
 (let (($x489 (= cell_1_5 4)))
 (let (($x488 (= cell_1_5 3)))
 (let (($x487 (= cell_1_5 2)))
 (let (($x486 (= cell_1_5 1)))
 (or $x486 $x487 $x488 $x489 $x490 $x491 $x492 $x493 $x494)))))))))))
(assert
 (let (($x504 (= cell_2_5 9)))
 (let (($x503 (= cell_2_5 8)))
 (let (($x502 (= cell_2_5 7)))
 (let (($x501 (= cell_2_5 6)))
 (let (($x500 (= cell_2_5 5)))
 (let (($x499 (= cell_2_5 4)))
 (let (($x498 (= cell_2_5 3)))
 (let (($x497 (= cell_2_5 2)))
 (let (($x496 (= cell_2_5 1)))
 (or $x496 $x497 $x498 $x499 $x500 $x501 $x502 $x503 $x504)))))))))))
(assert
 (let (($x513 (= cell_3_5 9)))
 (let (($x512 (= cell_3_5 8)))
 (let (($x511 (= cell_3_5 7)))
 (let (($x510 (= cell_3_5 6)))
 (let (($x509 (= cell_3_5 5)))
 (let (($x508 (= cell_3_5 4)))
 (let (($x507 (= cell_3_5 3)))
 (let (($x115 (= cell_3_5 2)))
 (let (($x506 (= cell_3_5 1)))
 (or $x506 $x115 $x507 $x508 $x509 $x510 $x511 $x512 $x513)))))))))))
(assert
 (let (($x523 (= cell_4_5 9)))
 (let (($x522 (= cell_4_5 8)))
 (let (($x521 (= cell_4_5 7)))
 (let (($x520 (= cell_4_5 6)))
 (let (($x519 (= cell_4_5 5)))
 (let (($x518 (= cell_4_5 4)))
 (let (($x517 (= cell_4_5 3)))
 (let (($x516 (= cell_4_5 2)))
 (let (($x515 (= cell_4_5 1)))
 (or $x515 $x516 $x517 $x518 $x519 $x520 $x521 $x522 $x523)))))))))))
(assert
 (let (($x532 (= cell_5_5 9)))
 (let (($x531 (= cell_5_5 8)))
 (let (($x530 (= cell_5_5 7)))
 (let (($x529 (= cell_5_5 6)))
 (let (($x528 (= cell_5_5 5)))
 (let (($x527 (= cell_5_5 4)))
 (let (($x526 (= cell_5_5 3)))
 (let (($x525 (= cell_5_5 2)))
 (let (($x120 (= cell_5_5 1)))
 (or $x120 $x525 $x526 $x527 $x528 $x529 $x530 $x531 $x532)))))))))))
(assert
 (let (($x542 (= cell_6_5 9)))
 (let (($x541 (= cell_6_5 8)))
 (let (($x540 (= cell_6_5 7)))
 (let (($x539 (= cell_6_5 6)))
 (let (($x538 (= cell_6_5 5)))
 (let (($x537 (= cell_6_5 4)))
 (let (($x536 (= cell_6_5 3)))
 (let (($x535 (= cell_6_5 2)))
 (let (($x534 (= cell_6_5 1)))
 (or $x534 $x535 $x536 $x537 $x538 $x539 $x540 $x541 $x542)))))))))))
(assert
 (let (($x552 (= cell_7_5 9)))
 (let (($x551 (= cell_7_5 8)))
 (let (($x550 (= cell_7_5 7)))
 (let (($x549 (= cell_7_5 6)))
 (let (($x548 (= cell_7_5 5)))
 (let (($x547 (= cell_7_5 4)))
 (let (($x546 (= cell_7_5 3)))
 (let (($x545 (= cell_7_5 2)))
 (let (($x544 (= cell_7_5 1)))
 (or $x544 $x545 $x546 $x547 $x548 $x549 $x550 $x551 $x552)))))))))))
(assert
 (let (($x562 (= cell_8_5 9)))
 (let (($x561 (= cell_8_5 8)))
 (let (($x560 (= cell_8_5 7)))
 (let (($x559 (= cell_8_5 6)))
 (let (($x558 (= cell_8_5 5)))
 (let (($x557 (= cell_8_5 4)))
 (let (($x556 (= cell_8_5 3)))
 (let (($x555 (= cell_8_5 2)))
 (let (($x554 (= cell_8_5 1)))
 (or $x554 $x555 $x556 $x557 $x558 $x559 $x560 $x561 $x562)))))))))))
(assert
 (let (($x572 (= cell_9_5 9)))
 (let (($x571 (= cell_9_5 8)))
 (let (($x570 (= cell_9_5 7)))
 (let (($x569 (= cell_9_5 6)))
 (let (($x568 (= cell_9_5 5)))
 (let (($x567 (= cell_9_5 4)))
 (let (($x566 (= cell_9_5 3)))
 (let (($x565 (= cell_9_5 2)))
 (let (($x564 (= cell_9_5 1)))
 (or $x564 $x565 $x566 $x567 $x568 $x569 $x570 $x571 $x572)))))))))))
(assert
 (let (($x581 (= cell_1_6 9)))
 (let (($x580 (= cell_1_6 8)))
 (let (($x579 (= cell_1_6 7)))
 (let (($x578 (= cell_1_6 6)))
 (let (($x577 (= cell_1_6 5)))
 (let (($x576 (= cell_1_6 4)))
 (let (($x575 (= cell_1_6 3)))
 (let (($x574 (= cell_1_6 2)))
 (let (($x112 (= cell_1_6 1)))
 (or $x112 $x574 $x575 $x576 $x577 $x578 $x579 $x580 $x581)))))))))))
(assert
 (let (($x591 (= cell_2_6 9)))
 (let (($x590 (= cell_2_6 8)))
 (let (($x589 (= cell_2_6 7)))
 (let (($x588 (= cell_2_6 6)))
 (let (($x587 (= cell_2_6 5)))
 (let (($x586 (= cell_2_6 4)))
 (let (($x585 (= cell_2_6 3)))
 (let (($x584 (= cell_2_6 2)))
 (let (($x583 (= cell_2_6 1)))
 (or $x583 $x584 $x585 $x586 $x587 $x588 $x589 $x590 $x591)))))))))))
(assert
 (let (($x601 (= cell_3_6 9)))
 (let (($x600 (= cell_3_6 8)))
 (let (($x599 (= cell_3_6 7)))
 (let (($x598 (= cell_3_6 6)))
 (let (($x597 (= cell_3_6 5)))
 (let (($x596 (= cell_3_6 4)))
 (let (($x595 (= cell_3_6 3)))
 (let (($x594 (= cell_3_6 2)))
 (let (($x593 (= cell_3_6 1)))
 (or $x593 $x594 $x595 $x596 $x597 $x598 $x599 $x600 $x601)))))))))))
(assert
 (let (($x611 (= cell_4_6 9)))
 (let (($x610 (= cell_4_6 8)))
 (let (($x609 (= cell_4_6 7)))
 (let (($x608 (= cell_4_6 6)))
 (let (($x607 (= cell_4_6 5)))
 (let (($x606 (= cell_4_6 4)))
 (let (($x605 (= cell_4_6 3)))
 (let (($x604 (= cell_4_6 2)))
 (let (($x603 (= cell_4_6 1)))
 (or $x603 $x604 $x605 $x606 $x607 $x608 $x609 $x610 $x611)))))))))))
(assert
 (let (($x621 (= cell_5_6 9)))
 (let (($x620 (= cell_5_6 8)))
 (let (($x619 (= cell_5_6 7)))
 (let (($x618 (= cell_5_6 6)))
 (let (($x617 (= cell_5_6 5)))
 (let (($x616 (= cell_5_6 4)))
 (let (($x615 (= cell_5_6 3)))
 (let (($x614 (= cell_5_6 2)))
 (let (($x613 (= cell_5_6 1)))
 (or $x613 $x614 $x615 $x616 $x617 $x618 $x619 $x620 $x621)))))))))))
(assert
 (let (($x631 (= cell_6_6 9)))
 (let (($x630 (= cell_6_6 8)))
 (let (($x629 (= cell_6_6 7)))
 (let (($x628 (= cell_6_6 6)))
 (let (($x627 (= cell_6_6 5)))
 (let (($x626 (= cell_6_6 4)))
 (let (($x625 (= cell_6_6 3)))
 (let (($x624 (= cell_6_6 2)))
 (let (($x623 (= cell_6_6 1)))
 (or $x623 $x624 $x625 $x626 $x627 $x628 $x629 $x630 $x631)))))))))))
(assert
 (let (($x641 (= cell_7_6 9)))
 (let (($x640 (= cell_7_6 8)))
 (let (($x639 (= cell_7_6 7)))
 (let (($x638 (= cell_7_6 6)))
 (let (($x637 (= cell_7_6 5)))
 (let (($x636 (= cell_7_6 4)))
 (let (($x635 (= cell_7_6 3)))
 (let (($x634 (= cell_7_6 2)))
 (let (($x633 (= cell_7_6 1)))
 (or $x633 $x634 $x635 $x636 $x637 $x638 $x639 $x640 $x641)))))))))))
(assert
 (let (($x651 (= cell_8_6 9)))
 (let (($x650 (= cell_8_6 8)))
 (let (($x649 (= cell_8_6 7)))
 (let (($x648 (= cell_8_6 6)))
 (let (($x647 (= cell_8_6 5)))
 (let (($x646 (= cell_8_6 4)))
 (let (($x645 (= cell_8_6 3)))
 (let (($x644 (= cell_8_6 2)))
 (let (($x643 (= cell_8_6 1)))
 (or $x643 $x644 $x645 $x646 $x647 $x648 $x649 $x650 $x651)))))))))))
(assert
 (let (($x660 (= cell_9_6 9)))
 (let (($x659 (= cell_9_6 8)))
 (let (($x658 (= cell_9_6 7)))
 (let (($x657 (= cell_9_6 6)))
 (let (($x656 (= cell_9_6 5)))
 (let (($x655 (= cell_9_6 4)))
 (let (($x654 (= cell_9_6 3)))
 (let (($x128 (= cell_9_6 2)))
 (let (($x653 (= cell_9_6 1)))
 (or $x653 $x128 $x654 $x655 $x656 $x657 $x658 $x659 $x660)))))))))))
(assert
 (let (($x670 (= cell_1_7 9)))
 (let (($x669 (= cell_1_7 8)))
 (let (($x668 (= cell_1_7 7)))
 (let (($x667 (= cell_1_7 6)))
 (let (($x666 (= cell_1_7 5)))
 (let (($x665 (= cell_1_7 4)))
 (let (($x664 (= cell_1_7 3)))
 (let (($x663 (= cell_1_7 2)))
 (let (($x662 (= cell_1_7 1)))
 (or $x662 $x663 $x664 $x665 $x666 $x667 $x668 $x669 $x670)))))))))))
(assert
 (let (($x679 (= cell_2_7 9)))
 (let (($x678 (= cell_2_7 8)))
 (let (($x677 (= cell_2_7 7)))
 (let (($x676 (= cell_2_7 6)))
 (let (($x675 (= cell_2_7 5)))
 (let (($x674 (= cell_2_7 4)))
 (let (($x673 (= cell_2_7 3)))
 (let (($x114 (= cell_2_7 2)))
 (let (($x672 (= cell_2_7 1)))
 (or $x672 $x114 $x673 $x674 $x675 $x676 $x677 $x678 $x679)))))))))))
(assert
 (let (($x689 (= cell_3_7 9)))
 (let (($x688 (= cell_3_7 8)))
 (let (($x687 (= cell_3_7 7)))
 (let (($x686 (= cell_3_7 6)))
 (let (($x685 (= cell_3_7 5)))
 (let (($x684 (= cell_3_7 4)))
 (let (($x683 (= cell_3_7 3)))
 (let (($x682 (= cell_3_7 2)))
 (let (($x681 (= cell_3_7 1)))
 (or $x681 $x682 $x683 $x684 $x685 $x686 $x687 $x688 $x689)))))))))))
(assert
 (let (($x699 (= cell_4_7 9)))
 (let (($x698 (= cell_4_7 8)))
 (let (($x697 (= cell_4_7 7)))
 (let (($x696 (= cell_4_7 6)))
 (let (($x695 (= cell_4_7 5)))
 (let (($x694 (= cell_4_7 4)))
 (let (($x693 (= cell_4_7 3)))
 (let (($x692 (= cell_4_7 2)))
 (let (($x691 (= cell_4_7 1)))
 (or $x691 $x692 $x693 $x694 $x695 $x696 $x697 $x698 $x699)))))))))))
(assert
 (let (($x709 (= cell_5_7 9)))
 (let (($x708 (= cell_5_7 8)))
 (let (($x707 (= cell_5_7 7)))
 (let (($x706 (= cell_5_7 6)))
 (let (($x705 (= cell_5_7 5)))
 (let (($x704 (= cell_5_7 4)))
 (let (($x703 (= cell_5_7 3)))
 (let (($x702 (= cell_5_7 2)))
 (let (($x701 (= cell_5_7 1)))
 (or $x701 $x702 $x703 $x704 $x705 $x706 $x707 $x708 $x709)))))))))))
(assert
 (let (($x719 (= cell_6_7 9)))
 (let (($x718 (= cell_6_7 8)))
 (let (($x717 (= cell_6_7 7)))
 (let (($x716 (= cell_6_7 6)))
 (let (($x715 (= cell_6_7 5)))
 (let (($x714 (= cell_6_7 4)))
 (let (($x713 (= cell_6_7 3)))
 (let (($x712 (= cell_6_7 2)))
 (let (($x711 (= cell_6_7 1)))
 (or $x711 $x712 $x713 $x714 $x715 $x716 $x717 $x718 $x719)))))))))))
(assert
 (let (($x728 (= cell_7_7 9)))
 (let (($x727 (= cell_7_7 8)))
 (let (($x726 (= cell_7_7 7)))
 (let (($x725 (= cell_7_7 6)))
 (let (($x724 (= cell_7_7 5)))
 (let (($x723 (= cell_7_7 4)))
 (let (($x722 (= cell_7_7 3)))
 (let (($x721 (= cell_7_7 2)))
 (let (($x123 (= cell_7_7 1)))
 (or $x123 $x721 $x722 $x723 $x724 $x725 $x726 $x727 $x728)))))))))))
(assert
 (let (($x738 (= cell_8_7 9)))
 (let (($x737 (= cell_8_7 8)))
 (let (($x736 (= cell_8_7 7)))
 (let (($x735 (= cell_8_7 6)))
 (let (($x734 (= cell_8_7 5)))
 (let (($x733 (= cell_8_7 4)))
 (let (($x732 (= cell_8_7 3)))
 (let (($x731 (= cell_8_7 2)))
 (let (($x730 (= cell_8_7 1)))
 (or $x730 $x731 $x732 $x733 $x734 $x735 $x736 $x737 $x738)))))))))))
(assert
 (let (($x748 (= cell_9_7 9)))
 (let (($x747 (= cell_9_7 8)))
 (let (($x746 (= cell_9_7 7)))
 (let (($x745 (= cell_9_7 6)))
 (let (($x744 (= cell_9_7 5)))
 (let (($x743 (= cell_9_7 4)))
 (let (($x742 (= cell_9_7 3)))
 (let (($x741 (= cell_9_7 2)))
 (let (($x740 (= cell_9_7 1)))
 (or $x740 $x741 $x742 $x743 $x744 $x745 $x746 $x747 $x748)))))))))))
(assert
 (let (($x758 (= cell_1_8 9)))
 (let (($x757 (= cell_1_8 8)))
 (let (($x756 (= cell_1_8 7)))
 (let (($x755 (= cell_1_8 6)))
 (let (($x754 (= cell_1_8 5)))
 (let (($x753 (= cell_1_8 4)))
 (let (($x752 (= cell_1_8 3)))
 (let (($x751 (= cell_1_8 2)))
 (let (($x750 (= cell_1_8 1)))
 (or $x750 $x751 $x752 $x753 $x754 $x755 $x756 $x757 $x758)))))))))))
(assert
 (let (($x768 (= cell_2_8 9)))
 (let (($x767 (= cell_2_8 8)))
 (let (($x766 (= cell_2_8 7)))
 (let (($x765 (= cell_2_8 6)))
 (let (($x764 (= cell_2_8 5)))
 (let (($x763 (= cell_2_8 4)))
 (let (($x762 (= cell_2_8 3)))
 (let (($x761 (= cell_2_8 2)))
 (let (($x760 (= cell_2_8 1)))
 (or $x760 $x761 $x762 $x763 $x764 $x765 $x766 $x767 $x768)))))))))))
(assert
 (let (($x777 (= cell_3_8 9)))
 (let (($x776 (= cell_3_8 8)))
 (let (($x775 (= cell_3_8 7)))
 (let (($x774 (= cell_3_8 6)))
 (let (($x773 (= cell_3_8 5)))
 (let (($x772 (= cell_3_8 4)))
 (let (($x771 (= cell_3_8 3)))
 (let (($x770 (= cell_3_8 2)))
 (let (($x116 (= cell_3_8 1)))
 (or $x116 $x770 $x771 $x772 $x773 $x774 $x775 $x776 $x777)))))))))))
(assert
 (let (($x786 (= cell_4_8 9)))
 (let (($x785 (= cell_4_8 8)))
 (let (($x784 (= cell_4_8 7)))
 (let (($x783 (= cell_4_8 6)))
 (let (($x782 (= cell_4_8 5)))
 (let (($x781 (= cell_4_8 4)))
 (let (($x780 (= cell_4_8 3)))
 (let (($x117 (= cell_4_8 2)))
 (let (($x779 (= cell_4_8 1)))
 (or $x779 $x117 $x780 $x781 $x782 $x783 $x784 $x785 $x786)))))))))))
(assert
 (let (($x796 (= cell_5_8 9)))
 (let (($x795 (= cell_5_8 8)))
 (let (($x794 (= cell_5_8 7)))
 (let (($x793 (= cell_5_8 6)))
 (let (($x792 (= cell_5_8 5)))
 (let (($x791 (= cell_5_8 4)))
 (let (($x790 (= cell_5_8 3)))
 (let (($x789 (= cell_5_8 2)))
 (let (($x788 (= cell_5_8 1)))
 (or $x788 $x789 $x790 $x791 $x792 $x793 $x794 $x795 $x796)))))))))))
(assert
 (let (($x806 (= cell_6_8 9)))
 (let (($x805 (= cell_6_8 8)))
 (let (($x804 (= cell_6_8 7)))
 (let (($x803 (= cell_6_8 6)))
 (let (($x802 (= cell_6_8 5)))
 (let (($x801 (= cell_6_8 4)))
 (let (($x800 (= cell_6_8 3)))
 (let (($x799 (= cell_6_8 2)))
 (let (($x798 (= cell_6_8 1)))
 (or $x798 $x799 $x800 $x801 $x802 $x803 $x804 $x805 $x806)))))))))))
(assert
 (let (($x816 (= cell_7_8 9)))
 (let (($x815 (= cell_7_8 8)))
 (let (($x814 (= cell_7_8 7)))
 (let (($x813 (= cell_7_8 6)))
 (let (($x812 (= cell_7_8 5)))
 (let (($x811 (= cell_7_8 4)))
 (let (($x810 (= cell_7_8 3)))
 (let (($x809 (= cell_7_8 2)))
 (let (($x808 (= cell_7_8 1)))
 (or $x808 $x809 $x810 $x811 $x812 $x813 $x814 $x815 $x816)))))))))))
(assert
 (let (($x826 (= cell_8_8 9)))
 (let (($x825 (= cell_8_8 8)))
 (let (($x824 (= cell_8_8 7)))
 (let (($x823 (= cell_8_8 6)))
 (let (($x822 (= cell_8_8 5)))
 (let (($x821 (= cell_8_8 4)))
 (let (($x820 (= cell_8_8 3)))
 (let (($x819 (= cell_8_8 2)))
 (let (($x818 (= cell_8_8 1)))
 (or $x818 $x819 $x820 $x821 $x822 $x823 $x824 $x825 $x826)))))))))))
(assert
 (let (($x836 (= cell_9_8 9)))
 (let (($x835 (= cell_9_8 8)))
 (let (($x834 (= cell_9_8 7)))
 (let (($x833 (= cell_9_8 6)))
 (let (($x832 (= cell_9_8 5)))
 (let (($x831 (= cell_9_8 4)))
 (let (($x830 (= cell_9_8 3)))
 (let (($x829 (= cell_9_8 2)))
 (let (($x828 (= cell_9_8 1)))
 (or $x828 $x829 $x830 $x831 $x832 $x833 $x834 $x835 $x836)))))))))))
(assert
 (let (($x846 (= cell_1_9 9)))
 (let (($x845 (= cell_1_9 8)))
 (let (($x844 (= cell_1_9 7)))
 (let (($x843 (= cell_1_9 6)))
 (let (($x842 (= cell_1_9 5)))
 (let (($x841 (= cell_1_9 4)))
 (let (($x840 (= cell_1_9 3)))
 (let (($x839 (= cell_1_9 2)))
 (let (($x838 (= cell_1_9 1)))
 (or $x838 $x839 $x840 $x841 $x842 $x843 $x844 $x845 $x846)))))))))))
(assert
 (let (($x856 (= cell_2_9 9)))
 (let (($x855 (= cell_2_9 8)))
 (let (($x854 (= cell_2_9 7)))
 (let (($x853 (= cell_2_9 6)))
 (let (($x852 (= cell_2_9 5)))
 (let (($x851 (= cell_2_9 4)))
 (let (($x850 (= cell_2_9 3)))
 (let (($x849 (= cell_2_9 2)))
 (let (($x848 (= cell_2_9 1)))
 (or $x848 $x849 $x850 $x851 $x852 $x853 $x854 $x855 $x856)))))))))))
(assert
 (let (($x866 (= cell_3_9 9)))
 (let (($x865 (= cell_3_9 8)))
 (let (($x864 (= cell_3_9 7)))
 (let (($x863 (= cell_3_9 6)))
 (let (($x862 (= cell_3_9 5)))
 (let (($x861 (= cell_3_9 4)))
 (let (($x860 (= cell_3_9 3)))
 (let (($x859 (= cell_3_9 2)))
 (let (($x858 (= cell_3_9 1)))
 (or $x858 $x859 $x860 $x861 $x862 $x863 $x864 $x865 $x866)))))))))))
(assert
 (let (($x875 (= cell_4_9 9)))
 (let (($x874 (= cell_4_9 8)))
 (let (($x873 (= cell_4_9 7)))
 (let (($x872 (= cell_4_9 6)))
 (let (($x871 (= cell_4_9 5)))
 (let (($x870 (= cell_4_9 4)))
 (let (($x869 (= cell_4_9 3)))
 (let (($x868 (= cell_4_9 2)))
 (let (($x118 (= cell_4_9 1)))
 (or $x118 $x868 $x869 $x870 $x871 $x872 $x873 $x874 $x875)))))))))))
(assert
 (let (($x885 (= cell_5_9 9)))
 (let (($x884 (= cell_5_9 8)))
 (let (($x883 (= cell_5_9 7)))
 (let (($x882 (= cell_5_9 6)))
 (let (($x881 (= cell_5_9 5)))
 (let (($x880 (= cell_5_9 4)))
 (let (($x879 (= cell_5_9 3)))
 (let (($x878 (= cell_5_9 2)))
 (let (($x877 (= cell_5_9 1)))
 (or $x877 $x878 $x879 $x880 $x881 $x882 $x883 $x884 $x885)))))))))))
(assert
 (let (($x895 (= cell_6_9 9)))
 (let (($x894 (= cell_6_9 8)))
 (let (($x893 (= cell_6_9 7)))
 (let (($x892 (= cell_6_9 6)))
 (let (($x891 (= cell_6_9 5)))
 (let (($x890 (= cell_6_9 4)))
 (let (($x889 (= cell_6_9 3)))
 (let (($x888 (= cell_6_9 2)))
 (let (($x887 (= cell_6_9 1)))
 (or $x887 $x888 $x889 $x890 $x891 $x892 $x893 $x894 $x895)))))))))))
(assert
 (let (($x904 (= cell_7_9 9)))
 (let (($x903 (= cell_7_9 8)))
 (let (($x902 (= cell_7_9 7)))
 (let (($x901 (= cell_7_9 6)))
 (let (($x900 (= cell_7_9 5)))
 (let (($x899 (= cell_7_9 4)))
 (let (($x898 (= cell_7_9 3)))
 (let (($x124 (= cell_7_9 2)))
 (let (($x897 (= cell_7_9 1)))
 (or $x897 $x124 $x898 $x899 $x900 $x901 $x902 $x903 $x904)))))))))))
(assert
 (let (($x914 (= cell_8_9 9)))
 (let (($x913 (= cell_8_9 8)))
 (let (($x912 (= cell_8_9 7)))
 (let (($x911 (= cell_8_9 6)))
 (let (($x910 (= cell_8_9 5)))
 (let (($x909 (= cell_8_9 4)))
 (let (($x908 (= cell_8_9 3)))
 (let (($x907 (= cell_8_9 2)))
 (let (($x906 (= cell_8_9 1)))
 (or $x906 $x907 $x908 $x909 $x910 $x911 $x912 $x913 $x914)))))))))))
(assert
 (let (($x924 (= cell_9_9 9)))
 (let (($x923 (= cell_9_9 8)))
 (let (($x922 (= cell_9_9 7)))
 (let (($x921 (= cell_9_9 6)))
 (let (($x920 (= cell_9_9 5)))
 (let (($x919 (= cell_9_9 4)))
 (let (($x918 (= cell_9_9 3)))
 (let (($x917 (= cell_9_9 2)))
 (let (($x916 (= cell_9_9 1)))
 (or $x916 $x917 $x918 $x919 $x920 $x921 $x922 $x923 $x924)))))))))))
(assert
 (and (distinct cell_1_1 cell_1_2 cell_1_3 cell_1_4 cell_1_5 cell_1_6 cell_1_7 cell_1_8 cell_1_9) true))
(assert
 (and (distinct cell_2_1 cell_2_2 cell_2_3 cell_2_4 cell_2_5 cell_2_6 cell_2_7 cell_2_8 cell_2_9) true))
(assert
 (and (distinct cell_3_1 cell_3_2 cell_3_3 cell_3_4 cell_3_5 cell_3_6 cell_3_7 cell_3_8 cell_3_9) true))
(assert
 (and (distinct cell_4_1 cell_4_2 cell_4_3 cell_4_4 cell_4_5 cell_4_6 cell_4_7 cell_4_8 cell_4_9) true))
(assert
 (and (distinct cell_5_1 cell_5_2 cell_5_3 cell_5_4 cell_5_5 cell_5_6 cell_5_7 cell_5_8 cell_5_9) true))
(assert
 (and (distinct cell_6_1 cell_6_2 cell_6_3 cell_6_4 cell_6_5 cell_6_6 cell_6_7 cell_6_8 cell_6_9) true))
(assert
 (and (distinct cell_7_1 cell_7_2 cell_7_3 cell_7_4 cell_7_5 cell_7_6 cell_7_7 cell_7_8 cell_7_9) true))
(assert
 (and (distinct cell_8_1 cell_8_2 cell_8_3 cell_8_4 cell_8_5 cell_8_6 cell_8_7 cell_8_8 cell_8_9) true))
(assert
 (and (distinct cell_9_1 cell_9_2 cell_9_3 cell_9_4 cell_9_5 cell_9_6 cell_9_7 cell_9_8 cell_9_9) true))
(assert
 (and (distinct cell_1_1 cell_2_1 cell_3_1 cell_4_1 cell_5_1 cell_6_1 cell_7_1 cell_8_1 cell_9_1) true))
(assert
 (and (distinct cell_1_2 cell_2_2 cell_3_2 cell_4_2 cell_5_2 cell_6_2 cell_7_2 cell_8_2 cell_9_2) true))
(assert
 (and (distinct cell_1_3 cell_2_3 cell_3_3 cell_4_3 cell_5_3 cell_6_3 cell_7_3 cell_8_3 cell_9_3) true))
(assert
 (and (distinct cell_1_4 cell_2_4 cell_3_4 cell_4_4 cell_5_4 cell_6_4 cell_7_4 cell_8_4 cell_9_4) true))
(assert
 (and (distinct cell_1_5 cell_2_5 cell_3_5 cell_4_5 cell_5_5 cell_6_5 cell_7_5 cell_8_5 cell_9_5) true))
(assert
 (and (distinct cell_1_6 cell_2_6 cell_3_6 cell_4_6 cell_5_6 cell_6_6 cell_7_6 cell_8_6 cell_9_6) true))
(assert
 (and (distinct cell_1_7 cell_2_7 cell_3_7 cell_4_7 cell_5_7 cell_6_7 cell_7_7 cell_8_7 cell_9_7) true))
(assert
 (and (distinct cell_1_8 cell_2_8 cell_3_8 cell_4_8 cell_5_8 cell_6_8 cell_7_8 cell_8_8 cell_9_8) true))
(assert
 (and (distinct cell_1_9 cell_2_9 cell_3_9 cell_4_9 cell_5_9 cell_6_9 cell_7_9 cell_8_9 cell_9_9) true))
(assert
 (and (distinct cell_1_1 cell_1_2 cell_1_3 cell_2_1 cell_2_2 cell_2_3 cell_3_1 cell_3_2 cell_3_3) true))
(assert
 (and (distinct cell_1_4 cell_1_5 cell_1_6 cell_2_4 cell_2_5 cell_2_6 cell_3_4 cell_3_5 cell_3_6) true))
(assert
 (and (distinct cell_1_7 cell_1_8 cell_1_9 cell_2_7 cell_2_8 cell_2_9 cell_3_7 cell_3_8 cell_3_9) true))
(assert
 (and (distinct cell_4_1 cell_4_2 cell_4_3 cell_5_1 cell_5_2 cell_5_3 cell_6_1 cell_6_2 cell_6_3) true))
(assert
 (and (distinct cell_4_4 cell_4_5 cell_4_6 cell_5_4 cell_5_5 cell_5_6 cell_6_4 cell_6_5 cell_6_6) true))
(assert
 (and (distinct cell_4_7 cell_4_8 cell_4_9 cell_5_7 cell_5_8 cell_5_9 cell_6_7 cell_6_8 cell_6_9) true))
(assert
 (and (distinct cell_7_1 cell_7_2 cell_7_3 cell_8_1 cell_8_2 cell_8_3 cell_9_1 cell_9_2 cell_9_3) true))
(assert
 (and (distinct cell_7_4 cell_7_5 cell_7_6 cell_8_4 cell_8_5 cell_8_6 cell_9_4 cell_9_5 cell_9_6) true))
(assert
 (and (distinct cell_7_7 cell_7_8 cell_7_9 cell_8_7 cell_8_8 cell_8_9 cell_9_7 cell_9_8 cell_9_9) true))
(assert
 (let (($x960 (and (distinct cell_5_9 cell_6_8 cell_7_7 cell_8_6) true)))
 (let (($x959 (and (distinct cell_2_9 cell_3_8 cell_4_7 cell_5_6 cell_6_5 cell_7_4 cell_8_3 cell_9_2) true)))
 (let (($x958 (and (distinct cell_1_8 cell_2_7 cell_3_6 cell_4_5 cell_5_4 cell_6_3 cell_7_2 cell_8_1) true)))
 (let (($x957 (and (distinct cell_1_5 cell_2_4 cell_3_3 cell_4_2) true)))
 (let (($x956 (and (distinct cell_5_1 cell_6_2 cell_7_3 cell_8_4) true)))
 (let (($x955 (and (distinct cell_2_1 cell_3_2 cell_4_3 cell_5_4 cell_6_5 cell_7_6 cell_8_7 cell_9_8) true)))
 (let (($x954 (and (distinct cell_1_2 cell_2_3 cell_3_4 cell_4_5 cell_5_6 cell_6_7 cell_7_8 cell_8_9) true)))
 (let (($x953 (and (distinct cell_1_5 cell_2_6 cell_3_7 cell_4_8) true)))
 (and $x953 $x954 $x955 $x956 $x957 $x958 $x959 $x960))))))))))
(assert
 (= cell_5_3 2))
(check-sat)
